(set-logic QF_LIA)
(declare-fun x0 () Int)
(declare-fun x1 () Int)
(declare-fun x2 () Int)
(declare-fun x3 () Int)
(declare-fun x4 () Int)
(declare-fun x5 () Int)
(declare-fun x6 () Int)
(declare-fun x7 () Int)
(declare-fun x8 () Int)
(declare-fun x9 () Int)
(declare-fun A4 () Bool)
(declare-fun A5 () Bool)
(declare-fun A6 () Bool)
(declare-fun A7 () Bool)
(declare-fun A8 () Bool)
(declare-fun A9 () Bool)
(assert (let ((.def_0 (not A9))) (let ((.def_1 (and .def_0 A5))) (let ((.def_2 (= A4 .def_0))) (let ((.def_3 (and .def_2 .def_1))) (let ((.def_4 (not .def_3))) (let ((.def_5 (* (- 1) x4))) (let ((.def_6 (< .def_5 (- 1)))) (let ((.def_7 (not .def_6))) (let ((.def_8 (or .def_7 A6))) (let ((.def_9 (* 1 x6))) (let ((.def_10 (* (- 1) x2))) (let ((.def_11 (+ .def_10 .def_9))) (let ((.def_12 (< .def_11 (- 1)))) (let ((.def_13 (not .def_12))) (let ((.def_14 (* 1 x5))) (let ((.def_15 (* (- 1) x7))) (let ((.def_16 (+ .def_15 .def_14))) (let ((.def_17 (< .def_16 (- 1)))) (let ((.def_18 (not .def_17))) (let ((.def_19 (or .def_18 .def_13))) (let ((.def_20 (or .def_19 .def_8))) (let ((.def_21 (not .def_20))) (let ((.def_22 (and .def_21 .def_4))) (let ((.def_23 (not .def_22))) (let ((.def_24 (not A4))) (let ((.def_25 (not A7))) (let ((.def_26 (or .def_25 .def_24))) (let ((.def_27 (or A5 A8))) (let ((.def_28 (and .def_27 .def_26))) (let ((.def_29 (not .def_28))) (let ((.def_30 (< .def_15 1))) (let ((.def_31 (not .def_30))) (let ((.def_32 (or .def_31 A6))) (let ((.def_33 (+ .def_14 .def_5))) (let ((.def_34 (< .def_33 1))) (let ((.def_35 (and .def_0 .def_34))) (let ((.def_36 (and .def_35 .def_32))) (let ((.def_37 (or .def_36 .def_29))) (let ((.def_38 (and .def_37 .def_23))) (let ((.def_39 (<= x9 1))) (let ((.def_40 (<= 0 x9))) (let ((.def_41 (<= x8 1))) (let ((.def_42 (<= 0 x8))) (let ((.def_43 (<= x7 1))) (let ((.def_44 (<= 0 x7))) (let ((.def_45 (<= x6 1))) (let ((.def_46 (<= 0 x6))) (let ((.def_47 (<= x5 1))) (let ((.def_48 (<= 0 x5))) (let ((.def_49 (<= x4 1))) (let ((.def_50 (<= 0 x4))) (let ((.def_51 (<= x3 1))) (let ((.def_52 (<= 0 x3))) (let ((.def_53 (<= x2 1))) (let ((.def_54 (<= 0 x2))) (let ((.def_55 (<= x1 1))) (let ((.def_56 (<= 0 x1))) (let ((.def_57 (<= x0 1))) (let ((.def_58 (<= 0 x0))) (let ((.def_59 (and .def_58 .def_57 .def_56 .def_55 .def_54 .def_53 .def_52 .def_51 .def_50 .def_49 .def_48 .def_47 .def_46 .def_45 .def_44 .def_43 .def_42 .def_41 .def_40 .def_39 .def_38))) .def_59)))))))))))))))))))))))))))))))))))))))))))))))))))))))))))))
(check-sat)
